11 42
1 2 1593 1
1 3 237 1
1 7 1486 1
1 8 999 1
1 9 91 1
1 10 280 1
1 11 403 1
2 3 357 1
2 4 491 1
2 5 310 1
2 6 704 1
2 8 807 1
2 10 442 1
2 11 453 1
3 5 988 1
3 6 82 1
3 8 871 1
3 9 1002 1
3 10 450 1
3 11 476 1
4 5 291 1
4 6 346 1
4 7 623 1
4 8 1500 1
4 9 400 1
4 10 600 1
4 11 800 1
5 6 750 1
5 7 850 1
5 8 680 1
5 9 1100 1
6 8 800 1
6 10 200 1
6 11 480 1
7 8 300 1
7 9 500 1
7 10 200 1
7 11 900 1
8 10 1100 1
8 11 500 1
9 10 800 1
9 11 100 1
48
1 2
1 3
1 4
1 5
1 7
1 8
1 9
1 10
2 3
2 4
2 5
2 6
2 8
2 9
2 10
2 11
3 4
3 5
3 6
3 7
3 9
3 10
3 11
4 5
4 6
4 7
4 8
4 10
4 11
5 6
5 7
5 8
5 9
5 11
6 7
6 8
6 9
6 10
7 8
7 9
7 10
7 11
8 9
8 10
8 11
9 10
9 11
10 11
6
2
1
